10	5
0	4	2	1	3	4
1	5	7	10	9	6	8
2	5	9	6	10	7	8
3	2	5	10
4	3	7	6	10
5	2	6	9
6	1	11
7	1	11
8	1	11
9	1	11
10	1	11
11	0
0	0	0	0	0	0	0
1	3	3	4	3	4	5
2	7	1	2	3	3	2
3	8	3	1	1	4	3
4	5	0	3	1	2	4
5	3	2	0	0	0	3
6	6	3	0	3	2	2
7	7	0	0	5	1	0
8	1	0	1	4	0	1
9	2	3	0	1	4	0
10	1	4	5	1	2	3
11	0	0	0	0	0	0
5	6	6	7	6
